12° run output:
{
    "Function": "kroB500.tsp",
    "Problem dimension": [
        164,
        335,
        4,
        126,
        259,
        57,
        401,
        30,
        125,
        204,
        276,
        234,
        22,
        314,
        194,
        338,
        467,
        483,
        424,
        264,
        103,
        229,
        78,
        244,
        469,
        49,
        170,
        416,
        74,
        489,
        147,
        270,
        257,
        222,
        123,
        418,
        309,
        137,
        394,
        358,
        324,
        474,
        473,
        464,
        18,
        83,
        332,
        88,
        238,
        330,
        492,
        292,
        52,
        183,
        409,
        165,
        5,
        158,
        232,
        354,
        231,
        342,
        92,
        24,
        227,
        182,
        154,
        344,
        193,
        157,
        79,
        241,
        397,
        302,
        255,
        398,
        379,
        33,
        490,
        261,
        242,
        341,
        248,
        188,
        313,
        325,
        471,
        16,
        47,
        101,
        25,
        455,
        399,
        321,
        308,
        40,
        99,
        385,
        443,
        212,
        58,
        66,
        465,
        390,
        153,
        487,
        468,
        156,
        475,
        44,
        53,
        430,
        436,
        11,
        479,
        446,
        26,
        65,
        377,
        111,
        81,
        39,
        10,
        27,
        121,
        266,
        228,
        152,
        163,
        176,
        19,
        169,
        355,
        363,
        414,
        155,
        167,
        55,
        116,
        441,
        284,
        219,
        195,
        268,
        289,
        62,
        271,
        250,
        258,
        466,
        269,
        310,
        422,
        281,
        141,
        145,
        28,
        247,
        0,
        352,
        96,
        97,
        340,
        61,
        243,
        73,
        491,
        233,
        461,
        253,
        283,
        67,
        211,
        70,
        130,
        128,
        426,
        447,
        366,
        198,
        63,
        303,
        374,
        135,
        408,
        42,
        450,
        351,
        304,
        139,
        80,
        368,
        203,
        64,
        293,
        127,
        102,
        178,
        177,
        251,
        29,
        319,
        421,
        217,
        2,
        20,
        460,
        328,
        456,
        393,
        290,
        46,
        151,
        496,
        361,
        396,
        428,
        59,
        1,
        297,
        76,
        224,
        175,
        420,
        285,
        329,
        48,
        419,
        180,
        197,
        190,
        444,
        129,
        186,
        273,
        50,
        339,
        442,
        38,
        429,
        82,
        87,
        370,
        359,
        296,
        107,
        75,
        400,
        367,
        417,
        407,
        386,
        236,
        98,
        415,
        31,
        239,
        196,
        437,
        493,
        215,
        159,
        262,
        226,
        136,
        118,
        119,
        410,
        345,
        318,
        256,
        484,
        470,
        168,
        221,
        413,
        277,
        350,
        208,
        91,
        353,
        34,
        301,
        161,
        343,
        54,
        132,
        160,
        187,
        485,
        45,
        56,
        213,
        391,
        252,
        477,
        43,
        380,
        105,
        13,
        356,
        17,
        433,
        498,
        287,
        279,
        23,
        166,
        333,
        295,
        323,
        376,
        192,
        237,
        432,
        77,
        3,
        85,
        298,
        149,
        263,
        373,
        172,
        331,
        403,
        150,
        389,
        201,
        326,
        106,
        220,
        93,
        249,
        440,
        457,
        131,
        347,
        110,
        122,
        84,
        148,
        305,
        476,
        459,
        486,
        112,
        405,
        254,
        124,
        291,
        104,
        360,
        280,
        143,
        267,
        448,
        434,
        453,
        364,
        348,
        162,
        68,
        322,
        134,
        108,
        206,
        115,
        235,
        265,
        12,
        37,
        8,
        480,
        375,
        260,
        449,
        392,
        311,
        210,
        36,
        120,
        286,
        205,
        21,
        388,
        225,
        381,
        312,
        320,
        100,
        438,
        404,
        383,
        384,
        207,
        181,
        334,
        327,
        7,
        337,
        362,
        458,
        288,
        15,
        365,
        294,
        316,
        109,
        144,
        146,
        369,
        35,
        202,
        184,
        481,
        299,
        346,
        142,
        245,
        431,
        185,
        451,
        90,
        278,
        372,
        307,
        95,
        191,
        382,
        199,
        69,
        223,
        406,
        72,
        200,
        94,
        439,
        86,
        9,
        411,
        435,
        71,
        315,
        246,
        463,
        117,
        41,
        478,
        216,
        497,
        482,
        349,
        174,
        189,
        113,
        51,
        494,
        171,
        282,
        472,
        218,
        462,
        452,
        357,
        427,
        89,
        402,
        138,
        133,
        395,
        274,
        425,
        32,
        495,
        60,
        214,
        173,
        499,
        114,
        412,
        209,
        6,
        272,
        179,
        317,
        14,
        230,
        371,
        378,
        488,
        423,
        387,
        454,
        300,
        445,
        275,
        336,
        240,
        306,
        140
    ],
    "Global Optimum": 0,
    "Algorithm": "Genetic algorithm",
    "Parameters": {
        "population": 30,
        "offspring": 30,
        "mutation probability": 0.002,
        "crossover probability": 0.9
    },
    "Fitness": 625451,
    "Solution": [
        164,
        335,
        4,
        126,
        259,
        57,
        401,
        30,
        125,
        204,
        276,
        234,
        22,
        314,
        194,
        338,
        467,
        483,
        424,
        264,
        103,
        229,
        78,
        244,
        469,
        49,
        170,
        416,
        74,
        489,
        147,
        270,
        257,
        222,
        123,
        418,
        309,
        137,
        394,
        358,
        324,
        474,
        473,
        464,
        18,
        83,
        332,
        88,
        238,
        330,
        492,
        292,
        52,
        183,
        409,
        165,
        5,
        158,
        232,
        354,
        231,
        342,
        92,
        24,
        227,
        182,
        154,
        344,
        193,
        157,
        79,
        241,
        397,
        302,
        255,
        398,
        379,
        33,
        490,
        261,
        242,
        341,
        248,
        188,
        313,
        325,
        471,
        16,
        47,
        101,
        25,
        455,
        399,
        321,
        308,
        40,
        99,
        385,
        443,
        212,
        58,
        66,
        465,
        390,
        153,
        487,
        468,
        156,
        475,
        44,
        53,
        430,
        436,
        11,
        479,
        446,
        26,
        65,
        377,
        111,
        81,
        39,
        10,
        27,
        121,
        266,
        228,
        152,
        163,
        176,
        19,
        169,
        355,
        363,
        414,
        155,
        167,
        55,
        116,
        441,
        284,
        219,
        195,
        268,
        289,
        62,
        271,
        250,
        258,
        466,
        269,
        310,
        422,
        281,
        141,
        145,
        28,
        247,
        0,
        352,
        96,
        97,
        340,
        61,
        243,
        73,
        491,
        233,
        461,
        253,
        283,
        67,
        211,
        70,
        130,
        128,
        426,
        447,
        366,
        198,
        63,
        303,
        374,
        135,
        408,
        42,
        450,
        351,
        304,
        139,
        80,
        368,
        203,
        64,
        293,
        127,
        102,
        178,
        177,
        251,
        29,
        319,
        421,
        217,
        2,
        20,
        460,
        328,
        456,
        393,
        290,
        46,
        151,
        496,
        361,
        396,
        428,
        59,
        1,
        297,
        76,
        224,
        175,
        420,
        285,
        329,
        48,
        419,
        180,
        197,
        190,
        444,
        129,
        186,
        273,
        50,
        339,
        442,
        38,
        429,
        82,
        87,
        370,
        359,
        296,
        107,
        75,
        400,
        367,
        417,
        407,
        386,
        236,
        98,
        415,
        31,
        239,
        196,
        437,
        493,
        215,
        159,
        262,
        226,
        136,
        118,
        119,
        410,
        345,
        318,
        256,
        484,
        470,
        168,
        221,
        413,
        277,
        350,
        208,
        91,
        353,
        34,
        301,
        161,
        343,
        54,
        132,
        160,
        187,
        485,
        45,
        56,
        213,
        391,
        252,
        477,
        43,
        380,
        105,
        13,
        356,
        17,
        433,
        498,
        287,
        279,
        23,
        166,
        333,
        295,
        323,
        376,
        192,
        237,
        432,
        77,
        3,
        85,
        298,
        149,
        263,
        373,
        172,
        331,
        403,
        150,
        389,
        201,
        326,
        106,
        220,
        93,
        249,
        440,
        457,
        131,
        347,
        110,
        122,
        84,
        148,
        305,
        476,
        459,
        486,
        112,
        405,
        254,
        124,
        291,
        104,
        360,
        280,
        143,
        267,
        448,
        434,
        453,
        364,
        348,
        162,
        68,
        322,
        134,
        108,
        206,
        115,
        235,
        265,
        12,
        37,
        8,
        480,
        375,
        260,
        449,
        392,
        311,
        210,
        36,
        120,
        286,
        205,
        21,
        388,
        225,
        381,
        312,
        320,
        100,
        438,
        404,
        383,
        384,
        207,
        181,
        334,
        327,
        7,
        337,
        362,
        458,
        288,
        15,
        365,
        294,
        316,
        109,
        144,
        146,
        369,
        35,
        202,
        184,
        481,
        299,
        346,
        142,
        245,
        431,
        185,
        451,
        90,
        278,
        372,
        307,
        95,
        191,
        382,
        199,
        69,
        223,
        406,
        72,
        200,
        94,
        439,
        86,
        9,
        411,
        435,
        71,
        315,
        246,
        463,
        117,
        41,
        478,
        216,
        497,
        482,
        349,
        174,
        189,
        113,
        51,
        494,
        171,
        282,
        472,
        218,
        462,
        452,
        357,
        427,
        89,
        402,
        138,
        133,
        395,
        274,
        425,
        32,
        495,
        60,
        214,
        173,
        499,
        114,
        412,
        209,
        6,
        272,
        179,
        317,
        14,
        230,
        371,
        378,
        488,
        423,
        387,
        454,
        300,
        445,
        275,
        336,
        240,
        306,
        140
    ],
    "Nb of functions evaluations": 50010,
    "Computational time in seconds": 369.71115827560425,
    "Stopping criterion in evaluations": 50000
}